data/benchmarks/bayes/75-14-4-q.cnf
p cnf 924 935
c weights 0.842518 0.157482 1 1 1 1 1 1 1 1 1 1 1 1 1 1 1 1 1 1 1 1 1 1 1 1 1 1 1 1 1 1 1 1 1 1 1 1 1 1 1 1 1 1 1 1 1 1 1 1 1 1 1 1 1 1 1 1 1 1 1 1 1 1 1 1 1 1 1 1 1 1 1 1 1 1 1 1 1 1 1 1 1 1 1 1 1 1 1 1 1 1 1 1 1 1 1 1 1 1 1 1 1 1 1 1 1 1 1 1 1 1 1 1 1 1 1 1 1 1 1 1 1 1 1 1 1 1 1 1 1 1 1 1 1 1 1 1 1 1 1 1 1 1 1 1 1 1 1 1 1 1 1 1 1 1 1 1 1 1 1 1 1 1 1 1 1 1 1 1 1 1 1 1 1 1 1 1 1 1 1 1 1 1 1 1 1 1 1 1 1 1 1 1 1 1 1 1 1 1 1 1 1 1 1 1 1 1 1 1 1 1 1 1 1 1 1 1 1 1 1 1 1 1 1 1 1 1 1 1 1 1 1 1 1 1 1 1 1 1 1 1 1 1 1 1 1 1 1 1 1 1 1 1 1 1 1 1 1 1 1 1 1 1 1 1 1 1 1 1 1 1 1 1 1 1 1 1 1 1 1 1 1 1 1 1 1 1 1 1 1 1 1 1 1 1 1 1 1 1 1 1 1 1 1 1 1 1 1 1 1 1 1 1 1 1 1 1 1 1 1 1 1 1 1 1 1 1 1 1 1 1 1 1 1 1 1 1 1 1 1 1 1 1 1 1 1 1 1 1 1 1 1 1 1 1 1 1 1 1 1 1 1 1 1 1 1 1 1 1 1 1 1 1 1 1 1 1 1 1 1 1 1 1 1 1 1 1 1 1 1 1 0.5 0.5 0.5 0.5 0.512068 0.48793200000000003 0.655039 0.34496099999999996 0.5 0.5 0.5 0.5 0.5 0.5 0.5 0.5 0.5 0.5 0.5 0.5 0.274687 0.725313 0.135755 0.864245 0.5 0.5 0.5 0.5 0.5 0.5 0.5 0.5 0.33981 0.66019 0.346791 0.6532089999999999 0.12159 0.87841 0.458487 0.541513 0.5 0.5 0.5 0.5 0.5 0.5 0.5 0.5 0.478172 0.521828 0.0172829 0.9827171 0.5 0.5 0.5 0.5 0.0816614 0.9183386 0.633984 0.366016 0.696134 0.30386599999999997 0.590879 0.40912099999999996 0.849786 0.15021399999999996 0.32596 0.67404 0.727722 0.272278 0.744378 0.255622 0.5 0.5 0.5 0.5 0.5 0.5 0.5 0.5 0.5 0.5 0.5 0.5 0.5 0.5 0.5 0.5 0.370035 0.629965 0.78726 0.21274000000000004 0.0197449 0.9802551 0.522357 0.47764300000000004 0.97458 0.025419999999999998 0.000529223 0.999470777 0.979307 0.02069299999999996 0.544173 0.455827 0.934754 0.06524600000000003 0.625834 0.374166 0.613459 0.386541 0.630888 0.369112 0.5 0.5 0.5 0.5 0.5 0.5 0.5 0.5 0.5 0.5 0.5 0.5 0.5 0.5 0.5 0.5 0.5 0.5 0.5 0.5 0.5 0.5 0.5 0.5 0.5 0.5 0.5 0.5 0.5 0.5 0.5 0.5 0.265903 0.734097 0.805071 0.19492900000000002 0.917069 0.08293099999999998 0.810075 0.189925 0.851824 0.14817599999999997 0.43591 0.56409 0.398005 0.6019950000000001 0.482712 0.517288 0.5 0.5 0.5 0.5 0.195296 0.804704 0.260902 0.739098 0.188438 0.811562 0.338616 0.661384 0.5 0.5 0.5 0.5 0.5 0.5 0.5 0.5 0.388651 0.6113489999999999 0.53703 0.46297 0.988889 0.011110999999999982 0.660229 0.33977100000000005 0.964626 0.03537400000000002 0.951551 0.048448999999999964 0.623757 0.376243 0.902387 0.09761299999999995 0.5 0.5 0.5 0.5 0.5 0.5 0.5 0.5 0.5 0.5 0.5 0.5 0.5 0.5 0.5 0.5 0.5 0.5 0.5 0.5 0.5 0.5 0.5 0.5 0.5 0.5 0.5 0.5 0.5 0.5 0.5 0.5 0.5 0.5 0.5 0.5 0.5 0.5 0.5 0.5 0.5 0.5 0.5 0.5 0.5 0.5 0.5 0.5 0.5 0.5 0.5 0.5 0.5 0.5 0.5 0.5 0.5 0.5 0.5 0.5 0.5 0.5 0.5 0.5 0.5 0.5 0.5 0.5 0.5 0.5 0.5 0.5 0.5 0.5 0.5 0.5 0.5 0.5 0.5 0.5 0.5 0.5 0.5 0.5 0.5 0.5 0.5 0.5 0.5 0.5 0.5 0.5 0.5 0.5 0.5 0.5 0.5 0.5 0.5 0.5 0.5 0.5 0.5 0.5 0.5 0.5 0.5 0.5 0.983677 0.016322999999999976 0.558017 0.441983 0.0308542 0.9691458 0.081821 0.918179 0.330219 0.669781 0.491322 0.508678 0.126953 0.873047 0.9354 0.06459999999999999 0.5 0.5 0.5 0.5 0.5 0.5 0.5 0.5 0.5 0.5 0.5 0.5 0.5 0.5 0.5 0.5 0.5 0.5 0.5 0.5 0.5 0.5 0.5 0.5 0.911154 0.08884599999999998 0.0574214 0.9425786 0.616944 0.38305599999999995 0.91275 0.08725000000000005 0.46581 0.5341899999999999 0.896428 0.103572 0.384895 0.615105 0.496665 0.503335 0.308444 0.6915560000000001 0.826884 0.17311600000000005 0.469571 0.530429 0.435396 0.564604 0.0203684 0.9796316 0.0233137 0.9766863 0.232962 0.767038 0.511587 0.488413 0.5 0.5 0.5 0.5 0.5 0.5 0.5 0.5 0.5 0.5 0.5 0.5 0.5 0.5 0.5 0.5 0.5 0.5 0.5 0.5 0.89634 0.10365999999999997 0.774539 0.22546100000000002 0.752073 0.247927 0.723218 0.276782 0.5 0.5 0.5 0.5 0.5 0.5 0.5 0.5 0.5 0.5 0.5 0.5 0.5 0.5 0.5 0.5 0.5 0.5 0.5 0.5 0.5 0.5 0.5 0.5 0.5 0.5 0.5 0.5 0.5 0.5 0.5 0.5 0.263901 0.7360990000000001 0.643988 0.356012 0.712431 0.28756899999999996 0.102819 0.897181 0.551754 0.44824600000000003 0.99916 0.0008399999999999519 0.576123 0.42387699999999995 0.303828 0.696172 0.5 0.5 0.5 0.5 0.5 0.5 0.5 0.5 0.5 0.5 0.5 0.5 0.5 0.5 0.5 0.5 0.974265 0.025734999999999952 0.00271003 0.99728997 0.420363 0.579637 0.194954 0.805046 0.5 0.5 0.5 0.5 0.5 0.5 0.5 0.5 0.5 0.5 0.5 0.5 0.5 0.5 0.5 0.5 0.5 0.5 0.5 0.5 0.5 0.5 0.5 0.5 0.5 0.5 0.5 0.5 0.164625 0.835375 0.347339 0.6526609999999999 0.362931 0.637069 0.411671 0.588329 0.5 0.5 0.5 0.5 0.5 0.5 0.5 0.5 0.5 0.5 0.5 0.5 0.5 0.5 0.5 0.5 0.159139 0.840861 0.512626 0.487374 0.87969 0.12031000000000003 0.422651 0.577349 0.5 0.5 0.5 0.5 0.5 0.5 0.5 0.5 0.24676 0.75324 0.858005 0.14199499999999998 0.757816 0.24218399999999995 0.580895 0.41910499999999995 0.5 0.5 0.5 0.5 0.5 0.5 0.5 0.5 0.5 0.5 0.5 0.5 0.5 0.5 0.5 0.5 0.152796 0.8472040000000001 0.28321 0.71679 0.0241266 0.9758734 0.832685 0.167315 0.5 0.5 0.5 0.5 0.5 0.5 0.5 0.5 0.5 0.5 0.5 0.5 0.5 0.5 0.5 0.5 0.5 0.5 0.5 0.5 0.0458124 0.9541876 0.497176 0.5028239999999999 0.547644 0.452356 0.697671 0.30232899999999996 0.5 0.5 0.5 0.5 0.5 0.5 0.5 0.5 0.5 0.5 0.5 0.5 0.5 0.5 0.5 0.5 0.5 0.5 0.5 0.5 0.5 0.5 0.5 0.5 0.5 0.5 0.5 0.5 0.5 0.5 0.5 0.5 0.5 0.5 0.5 0.5 0.5 0.5 0.5 0.5 0.5 0.5 0.5 0.5 0.5 0.5 0.5 0.5 0.5 0.5 0.5 0.5 0.5 0.5 0.5 0.5 0.5 0.5 0.5 0.5 0.5 0.5 0.5 0.5 0.5 0.5 0.5 0.5 0.5 0.5 0.5 0.5 0.5 0.5 0.5 0.5 0.5 0.5 0.5 0.5 0.5 0.5 0.5 0.5 0.5 0.5 0.5 0.5 0.648002 0.35199800000000003 0.58599 0.41401 0.535168 0.464832 0.396124 0.6038760000000001 0.5 0.5 0.5 0.5 0.5 0.5 0.5 0.5 0.5 0.5 0.5 0.5 0.5 0.5 0.5 0.5 0.5 0.5 0.5 0.5 0.5 0.5 0.5 0.5 0.5 0.5 0.5 0.5 0.5 0.5 0.5 0.5 0.5 0.5 0.5 0.5 0.987658 0.012341999999999964 0.862088 0.13791200000000003 0.447037 0.552963 0.963227 0.036772999999999945 0.5 0.5 0.5 0.5 0.5 0.5 0.5 0.5 0.5 0.5 0.5 0.5 0.5 0.5 0.5 0.5 0.5 0.5 0.5 0.5 0.5 0.5 0.5 0.5 0.566652 0.43334799999999996 0.635701 0.36429900000000004 0.286395 0.713605 0.93408 0.06591999999999998 0.5 0.5 0.5 0.5 0.5 0.5 0.5 0.5 0.5 0.5 0.5 0.5 0.5 0.5 0.5 0.5 0.5 0.5 0.5 0.5 0.5 0.5 0.5 0.5 0.5 0.5 0.5 0.5 0.5 0.5 0.5 0.5 0.607998 0.39200199999999996 0.609117 0.390883 0.5 0.5 0.5 0.5 0.5 0.5 0.5 0.5 0.5 0.5 0.5 0.5 0.5 0.5 0.5 0.5 0.5 0.5 0.5 0.5 0.5 0.5 0.5 0.5 0.5 0.5 0.5 0.5 0.5 0.5 0.5 0.5 0.5 0.5 0.5 0.5 0.5 0.5 0.5 0.5 0.615684 0.384316 0.216082 0.783918 0.577948 0.422052 0.213457 0.786543 0.5 0.5 0.5 0.5 0.5 0.5 0.5 0.5 0.5 0.5 0.5 0.5 0.5 0.5 0.5 0.5 0.0304292 0.9695708 0.887645 0.11235499999999998 0.726295 0.273705 0.794649 0.20535099999999995 0.5 0.5 0.5 0.5 0.5 0.5 0.5 0.5 0.5 0.5 0.5 0.5 0.5 0.5 0.5 0.5 0.5 0.5 0.5 0.5 0.5 0.5 0.5 0.5 0.5 0.5 0.5 0.5 0.5 0.5 0.5 0.5 0.5 0.5 0.5 0.5 0.5 0.5 0.5 0.5 0.5 0.5 0.5 0.5 0.272633 0.727367 0.691359 0.30864100000000005 0.673874 0.326126 0.277938 0.722062 0.5 0.5 0.5 0.5 0.5 0.5 0.5 0.5 0.58118 0.41881999999999997 0.977353 0.022646999999999973 0.274593 0.725407 0.122958 0.877042 0.5 0.5 0.5 0.5 0.5 0.5 0.5 0.5 0.5 0.5 0.5 0.5 0.5 0.5 0.5 0.5 0.5 0.5 0.5 0.5 0.5 0.5 0.5 0.5 0.5 0.5 0.5 0.5 0.5 0.5 0.5 0.5 0.5 0.5 0.5 0.5 0.5 0.5 0.5 0.5 0.5 0.5 0.5 0.5 0.5 0.5 0.5 0.5 0.5 0.5 0.5 0.5 0.5 0.5 0.5 0.5 0.5 0.5 0.5 0.5 0.5 0.5 0.5 0.5 0.5 0.5 0.5 0.5 0.5 0.5 0.5 0.5 0.5 0.5 0.5 0.5 0.5 0.5 0.5 0.5 0.5 0.5 0.5 0.5 0.5 0.5 0.5 0.5 0.5 0.5 0.5 0.5 0.5 0.5 0.5 0.5 0.5 0.5 0.5 0.5 0.5 0.5 0.5 0.5 0.5 0.5 0.5 0.5 0.5 0.5 0.5 0.5 0.5 0.5 0.5 0.5 0.5 0.5 0.5 0.5 0.5 0.5 0.5 0.5 0.5 0.5 0.5 0.5 0.5 0.5 0.5 0.5 0.5 0.5 0.5 0.5 0.5 0.5 0.5 0.5 0.883881 0.11611899999999997 0.0501154 0.9498846 0.179057 0.820943 0.967675 0.03232500000000005 0.5 0.5 0.5 0.5 0.5 0.5 0.5 0.5 0.884618 0.11538199999999998 0.646726 0.353274 0.122189 0.877811 0.74924 0.25076 0.5 0.5 0.5 0.5 0.5 0.5 0.5 0.5 0.467688 0.532312 0.858024 0.141976 0.954664 0.04533600000000004 0.862659 0.13734100000000005 0.13701 0.86299 0.458298 0.541702 0.5 0.5 0.5 0.5 0.5 0.5 0.5 0.5 0.5 0.5 0.5 0.5 0.5 0.5 0.5 0.5 0.5 0.5 0.5 0.5 0.5 0.5 0.5 0.5 0.216827 0.783173 0.462901 0.537099 0.31813 0.68187 0.802598 0.19740199999999997 0.5 0.5 0.5 0.5 0.5 0.5 0.5 0.5 0.123992 0.876008 0.526315 0.473685 0.753273 0.24672700000000003 0.261002 0.738998 0.290434 0.7095659999999999 0.12533 0.8746700000000001 0.215947 0.784053 0.592537 0.407463 0.497396 0.502604 0.0736978 0.9263022 0.589424 0.41057600000000005 0.0865424 0.9134576 0.5 0.5 0.5 0.5 0.5 0.5 0.5 0.5 0.5 0.5 0.5 0.5 0.5 0.5 0.5 0.5 0.5 0.5 0.5 0.5 0.5 0.5 0.5 0.5 0.574501 0.42549899999999996 0.151932 0.848068 0.704674 0.295326 0.835503 0.164497 0.5 0.5 0.5 0.5 0.5 0.5 0.5 0.5 0.849888 0.15011200000000002 0.661344 0.33865599999999996 0.5 0.5 0.5 0.5 0.5 0.5 0.5 0.5 0.5 0.5 0.5 0.5 0.5 0.5 0.5 0.5 0.5 0.5 0.5 0.5 0.5 0.5 0.5 0.5 0.5 0.5 0.5 0.5 0.5 0.5 0.5 0.5 0.5 0.5 0.5 0.5 0.5 0.5 0.5 0.5 0.5 0.5 0.5 0.5 0.5 0.5 0.5 0.5 0.513273 0.486727 0.101303 0.898697 0.212056 0.787944 0.36529 0.63471 0.5 0.5 0.5 0.5 0.5 0.5 0.5 0.5 0.5 0.5 0.5 0.5 0.5 0.5 0.5 0.5 0.5 0.5 0.5 0.5 0.5 0.5 0.5 0.5 0.5 0.5 0.5 0.5 0.5 0.5 0.5 0.5 0.502353 0.49764699999999995 0.645987 0.354013 0.360631 0.6393690000000001 0.079195 0.920805 0.294741 0.7052590000000001 0.592468 0.407532 0.0388212 0.9611788 0.506797 0.49320299999999995 0.424677 0.575323 0.945588 0.054412000000000016 0.542947 0.45705300000000004 0.776729 0.223271 0.224278 0.775722 0.159622 0.840378 0.498839 0.501161 0.236664 0.763336 0.551496 0.448504 0.0785037 0.9214963 0.5 0.5 0.5 0.5 0.5 0.5 0.5 0.5 0.5 0.5 0.5 0.5 0.5 0.5 0.5 0.5 0.5 0.5 0.5 0.5 0.5 0.5 0.5 0.5 0.0886996 0.9113004 0.724639 0.27536099999999997 0.707799 0.29220100000000004 0.513376 0.48662399999999995 0.5 0.5 0.5 0.5 0.5 0.5 0.5 0.5 0.5 0.5 0.5 0.5 0.5 0.5 0.5 0.5 0.5 0.5 0.5 0.5 0.5 0.5 0.5 0.5 0.563656 0.43634399999999995 0.228949 0.7710509999999999 0.361151 0.638849 0.126125 0.873875 0.5 0.5 0.5 0.5 0.5 0.5 0.5 0.5 0.5 0.5 0.5 0.5 0.5 0.5 0.5 0.5 0.5 0.5 0.5 0.5 0.5 0.5 0.5 0.5
-1 2 0
1 -2 0
-2 -199 3 0
-2 199 -3 0
2 -200 3 0
2 200 -3 0
-3 4 0
3 -4 0
-4 5 0
4 -5 0
-5 6 0
5 -6 0
-6 -207 7 0
-6 207 -7 0
6 -208 7 0
6 208 -7 0
-7 8 0
7 -8 0
-8 9 0
8 -9 0
-9 -213 10 0
-9 213 -10 0
9 -214 10 0
9 214 -10 0
-10 -215 11 0
-10 215 -11 0
10 -216 11 0
10 216 -11 0
-11 -12 0
11 12 0
-12 13 0
12 -13 0
-13 -221 14 0
-13 221 -14 0
13 -222 14 0
13 222 -14 0
-1 -15 0
1 15 0
-15 -2 -225 16 0
-15 -2 225 -16 0
-15 2 -226 16 0
-15 2 226 -16 0
15 -2 -227 16 0
15 -2 227 -16 0
15 2 -228 16 0
15 2 228 -16 0
-16 -3 -229 17 0
-16 -3 229 -17 0
-16 3 -230 17 0
-16 3 230 -17 0
16 -3 -231 17 0
16 -3 231 -17 0
16 3 -232 17 0
16 3 232 -17 0
-17 -4 -18 0
-17 4 18 0
17 -4 -18 0
17 4 18 0
-18 -5 -19 0
-18 5 19 0
18 -5 19 0
18 5 19 0
-19 -6 -241 20 0
-19 -6 241 -20 0
-19 6 -242 20 0
-19 6 242 -20 0
19 -6 -243 20 0
19 -6 243 -20 0
19 6 -244 20 0
19 6 244 -20 0
-20 -7 -245 21 0
-20 -7 245 -21 0
-20 7 -246 21 0
-20 7 246 -21 0
20 -7 -247 21 0
20 -7 247 -21 0
20 7 -248 21 0
20 7 248 -21 0
-21 -8 -249 22 0
-21 -8 249 -22 0
-21 8 -250 22 0
-21 8 250 -22 0
21 -8 -251 22 0
21 -8 251 -22 0
21 8 -252 22 0
21 8 252 -22 0
-22 -9 23 0
-22 9 -23 0
22 -9 -23 0
22 9 -23 0
-23 -10 -24 0
-23 10 -24 0
23 -10 -24 0
23 10 24 0
-24 -11 25 0
-24 11 -25 0
24 -11 25 0
24 11 -25 0
-25 -12 26 0
-25 12 -26 0
25 -12 26 0
25 12 -26 0
-26 -13 -269 27 0
-26 -13 269 -27 0
-26 13 -270 27 0
-26 13 270 -27 0
26 -13 -271 27 0
26 -13 271 -27 0
26 13 -272 27 0
26 13 272 -27 0
-27 -14 -273 28 0
-27 -14 273 -28 0
-27 14 -274 28 0
-27 14 274 -28 0
27 -14 -275 28 0
27 -14 275 -28 0
27 14 -276 28 0
27 14 276 -28 0
-15 -29 0
15 29 0
-29 -16 -279 30 0
-29 -16 279 -30 0
-29 16 -280 30 0
-29 16 280 -30 0
29 -16 -281 30 0
29 -16 281 -30 0
29 16 -282 30 0
29 16 282 -30 0
-30 -17 -31 0
-30 17 -31 0
30 -17 31 0
30 17 -31 0
-31 -18 -287 32 0
-31 -18 287 -32 0
-31 18 -288 32 0
-31 18 288 -32 0
31 -18 -289 32 0
31 -18 289 -32 0
31 18 -290 32 0
31 18 290 -32 0
-32 -19 -291 33 0
-32 -19 291 -33 0
-32 19 -292 33 0
-32 19 292 -33 0
32 -19 -293 33 0
32 -19 293 -33 0
32 19 -294 33 0
32 19 294 -33 0
-33 -20 -34 0
-33 20 34 0
33 -20 -34 0
33 20 34 0
-34 -21 35 0
-34 21 35 0
34 -21 -35 0
34 21 -35 0
-35 -22 -36 0
-35 22 36 0
35 -22 -36 0
35 22 -36 0
-36 -23 -37 0
-36 23 -37 0
36 -23 37 0
36 23 37 0
-37 -24 -38 0
-37 24 -38 0
37 -24 -38 0
37 24 38 0
-38 -25 39 0
-38 25 -39 0
38 -25 39 0
38 25 -39 0
-39 -26 40 0
-39 26 40 0
39 -26 -40 0
39 26 40 0
-40 -27 -41 0
-40 27 -41 0
40 -27 41 0
40 27 41 0
-41 -28 42 0
-41 28 42 0
41 -28 -42 0
41 28 42 0
-29 43 0
29 -43 0
-43 -30 44 0
-43 30 -44 0
43 -30 -44 0
43 30 -44 0
-44 -31 45 0
-44 31 -45 0
44 -31 45 0
44 31 -45 0
-45 -32 46 0
-45 32 46 0
45 -32 -46 0
45 32 -46 0
-46 -33 47 0
-46 33 -47 0
46 -33 47 0
46 33 -47 0
-47 -34 -349 48 0
-47 -34 349 -48 0
-47 34 -350 48 0
-47 34 350 -48 0
47 -34 -351 48 0
47 -34 351 -48 0
47 34 -352 48 0
47 34 352 -48 0
-48 -35 -353 49 0
-48 -35 353 -49 0
-48 35 -354 49 0
-48 35 354 -49 0
48 -35 -355 49 0
48 -35 355 -49 0
48 35 -356 49 0
48 35 356 -49 0
-49 -36 50 0
-49 36 -50 0
49 -36 50 0
49 36 -50 0
-50 -37 51 0
-50 37 51 0
50 -37 -51 0
50 37 -51 0
-51 -38 -52 0
-51 38 -52 0
51 -38 -52 0
51 38 52 0
-52 -39 -369 53 0
-52 -39 369 -53 0
-52 39 -370 53 0
-52 39 370 -53 0
52 -39 -371 53 0
52 -39 371 -53 0
52 39 -372 53 0
52 39 372 -53 0
-53 -40 -373 54 0
-53 -40 373 -54 0
-53 40 -374 54 0
-53 40 374 -54 0
53 -40 -375 54 0
53 -40 375 -54 0
53 40 -376 54 0
53 40 376 -54 0
-54 -41 -377 55 0
-54 -41 377 -55 0
-54 41 -378 55 0
-54 41 378 -55 0
54 -41 -379 55 0
54 -41 379 -55 0
54 41 -380 55 0
54 41 380 -55 0
-55 -42 -381 56 0
-55 -42 381 -56 0
-55 42 -382 56 0
-55 42 382 -56 0
55 -42 -383 56 0
55 -42 383 -56 0
55 42 -384 56 0
55 42 384 -56 0
-43 57 0
43 -57 0
-57 -44 58 0
-57 44 -58 0
57 -44 58 0
57 44 -58 0
-58 -45 59 0
-58 45 -59 0
58 -45 59 0
58 45 59 0
-59 -46 -395 60 0
-59 -46 395 -60 0
-59 46 -396 60 0
-59 46 396 -60 0
59 -46 -397 60 0
59 -46 397 -60 0
59 46 -398 60 0
59 46 398 -60 0
-60 -47 61 0
-60 47 -61 0
60 -47 -61 0
60 47 61 0
-61 -48 62 0
-61 48 62 0
61 -48 62 0
61 48 -62 0
-62 -49 63 0
-62 49 -63 0
62 -49 63 0
62 49 63 0
-63 -50 -64 0
-63 50 -64 0
63 -50 64 0
63 50 64 0
-64 -51 -415 65 0
-64 -51 415 -65 0
-64 51 -416 65 0
-64 51 416 -65 0
64 -51 -417 65 0
64 -51 417 -65 0
64 51 -418 65 0
64 51 418 -65 0
-65 -52 -419 66 0
-65 -52 419 -66 0
-65 52 -420 66 0
-65 52 420 -66 0
65 -52 -421 66 0
65 -52 421 -66 0
65 52 -422 66 0
65 52 422 -66 0
-66 -53 -67 0
-66 53 67 0
66 -53 -67 0
66 53 -67 0
-67 -54 68 0
-67 54 -68 0
67 -54 68 0
67 54 68 0
-68 -55 -431 69 0
-68 -55 431 -69 0
-68 55 -432 69 0
-68 55 432 -69 0
68 -55 -433 69 0
68 -55 433 -69 0
68 55 -434 69 0
68 55 434 -69 0
-69 -56 -70 0
-69 56 -70 0
69 -56 -70 0
69 56 70 0
-57 -71 0
57 71 0
-71 -58 72 0
-71 58 -72 0
71 -58 72 0
71 58 -72 0
-72 -59 73 0
-72 59 -73 0
72 -59 73 0
72 59 73 0
-73 -60 -449 74 0
-73 -60 449 -74 0
-73 60 -450 74 0
-73 60 450 -74 0
73 -60 -451 74 0
73 -60 451 -74 0
73 60 -452 74 0
73 60 452 -74 0
-74 -61 -75 0
-74 61 -75 0
74 -61 75 0
74 61 75 0
-75 -62 76 0
-75 62 76 0
75 -62 76 0
75 62 -76 0
-76 -63 -461 77 0
-76 -63 461 -77 0
-76 63 -462 77 0
-76 63 462 -77 0
76 -63 -463 77 0
76 -63 463 -77 0
76 63 -464 77 0
76 63 464 -77 0
-77 -64 78 0
-77 64 -78 0
77 -64 78 0
77 64 -78 0
-78 -65 -469 79 0
-78 -65 469 -79 0
-78 65 -470 79 0
-78 65 470 -79 0
78 -65 -471 79 0
78 -65 471 -79 0
78 65 -472 79 0
78 65 472 -79 0
-79 -66 80 0
-79 66 -80 0
79 -66 80 0
79 66 -80 0
-80 -67 81 0
-80 67 -81 0
80 -67 -81 0
80 67 81 0
-81 -68 -481 82 0
-81 -68 481 -82 0
-81 68 -482 82 0
-81 68 482 -82 0
81 -68 -483 82 0
81 -68 483 -82 0
81 68 -484 82 0
81 68 484 -82 0
-82 -69 83 0
-82 69 83 0
82 -69 -83 0
82 69 -83 0
-83 -70 84 0
-83 70 84 0
83 -70 -84 0
83 70 -84 0
-71 -85 0
71 85 0
-85 -72 -495 86 0
-85 -72 495 -86 0
-85 72 -496 86 0
-85 72 496 -86 0
85 -72 -497 86 0
85 -72 497 -86 0
85 72 -498 86 0
85 72 498 -86 0
-86 -73 87 0
-86 73 87 0
86 -73 87 0
86 73 -87 0
-87 -74 88 0
-87 74 -88 0
87 -74 -88 0
87 74 88 0
-88 -75 -89 0
-88 75 89 0
88 -75 89 0
88 75 -89 0
-89 -76 90 0
-89 76 -90 0
89 -76 -90 0
89 76 90 0
-90 -77 91 0
-90 77 91 0
90 -77 -91 0
90 77 91 0
-91 -78 92 0
-91 78 92 0
91 -78 92 0
91 78 -92 0
-92 -79 -93 0
-92 79 93 0
92 -79 -93 0
92 79 93 0
-93 -80 94 0
-93 80 -94 0
93 -80 -94 0
93 80 94 0
-94 -81 -95 0
-94 81 95 0
94 -81 95 0
94 81 95 0
-95 -82 96 0
-95 82 -96 0
95 -82 -96 0
95 82 96 0
-96 -83 97 0
-96 83 -97 0
96 -83 -97 0
96 83 -97 0
-97 -84 -543 98 0
-97 -84 543 -98 0
-97 84 -544 98 0
-97 84 544 -98 0
97 -84 -545 98 0
97 -84 545 -98 0
97 84 -546 98 0
97 84 546 -98 0
-85 -99 0
85 99 0
-99 -86 -100 0
-99 86 100 0
99 -86 -100 0
99 86 -100 0
-100 -87 -101 0
-100 87 101 0
100 -87 -101 0
100 87 -101 0
-101 -88 102 0
-101 88 -102 0
101 -88 -102 0
101 88 -102 0
-102 -89 -103 0
-102 89 103 0
102 -89 -103 0
102 89 -103 0
-103 -90 -565 104 0
-103 -90 565 -104 0
-103 90 -566 104 0
-103 90 566 -104 0
103 -90 -567 104 0
103 -90 567 -104 0
103 90 -568 104 0
103 90 568 -104 0
-104 -91 -105 0
-104 91 -105 0
104 -91 105 0
104 91 -105 0
-105 -92 106 0
-105 92 106 0
105 -92 -106 0
105 92 106 0
-106 -93 107 0
-106 93 -107 0
106 -93 -107 0
106 93 -107 0
-107 -94 -581 108 0
-107 -94 581 -108 0
-107 94 -582 108 0
-107 94 582 -108 0
107 -94 -583 108 0
107 -94 583 -108 0
107 94 -584 108 0
107 94 584 -108 0
-108 -95 -109 0
-108 95 -109 0
108 -95 109 0
108 95 109 0
-109 -96 110 0
-109 96 -110 0
109 -96 110 0
109 96 110 0
-110 -97 -111 0
-110 97 -111 0
110 -97 -111 0
110 97 111 0
-111 -98 112 0
-111 98 112 0
111 -98 112 0
111 98 -112 0
-99 -601 113 0
-99 601 -113 0
99 -602 113 0
99 602 -113 0
-113 -100 114 0
-113 100 -114 0
113 -100 -114 0
113 100 -114 0
-114 -101 115 0
-114 101 115 0
114 -101 -115 0
114 101 -115 0
-115 -102 -116 0
-115 102 -116 0
115 -102 -116 0
115 102 116 0
-116 -103 117 0
-116 103 117 0
116 -103 -117 0
116 103 117 0
-117 -104 118 0
-117 104 118 0
117 -104 -118 0
117 104 118 0
-118 -105 -623 119 0
-118 -105 623 -119 0
-118 105 -624 119 0
-118 105 624 -119 0
118 -105 -625 119 0
118 -105 625 -119 0
118 105 -626 119 0
118 105 626 -119 0
-119 -106 120 0
-119 106 -120 0
119 -106 120 0
119 106 -120 0
-120 -107 -121 0
-120 107 121 0
120 -107 -121 0
120 107 121 0
-121 -108 -635 122 0
-121 -108 635 -122 0
-121 108 -636 122 0
-121 108 636 -122 0
121 -108 -637 122 0
121 -108 637 -122 0
121 108 -638 122 0
121 108 638 -122 0
-122 -109 -123 0
-122 109 123 0
122 -109 -123 0
122 109 123 0
-123 -110 -124 0
-123 110 124 0
123 -110 -124 0
123 110 -124 0
-124 -111 -125 0
-124 111 -125 0
124 -111 -125 0
124 111 125 0
-125 -112 126 0
-125 112 126 0
125 -112 126 0
125 112 -126 0
-113 127 0
113 -127 0
-127 -114 -128 0
-127 114 128 0
127 -114 128 0
127 114 128 0
-128 -115 -661 129 0
-128 -115 661 -129 0
-128 115 -662 129 0
-128 115 662 -129 0
128 -115 -663 129 0
128 -115 663 -129 0
128 115 -664 129 0
128 115 664 -129 0
-129 -116 -130 0
-129 116 130 0
129 -116 130 0
129 116 130 0
-130 -117 -669 131 0
-130 -117 669 -131 0
-130 117 -670 131 0
-130 117 670 -131 0
130 -117 -671 131 0
130 -117 671 -131 0
130 117 -672 131 0
130 117 672 -131 0
-131 -118 -132 0
-131 118 132 0
131 -118 132 0
131 118 132 0
-132 -119 -133 0
-132 119 133 0
132 -119 -133 0
132 119 133 0
-133 -120 -134 0
-133 120 134 0
133 -120 -134 0
133 120 -134 0
-134 -121 135 0
-134 121 -135 0
134 -121 -135 0
134 121 -135 0
-135 -122 -136 0
-135 122 -136 0
135 -122 -136 0
135 122 136 0
-136 -123 -137 0
-136 123 137 0
136 -123 -137 0
136 123 137 0
-137 -124 138 0
-137 124 -138 0
137 -124 -138 0
137 124 -138 0
-138 -125 139 0
-138 125 -139 0
138 -125 -139 0
138 125 139 0
-139 -126 -140 0
-139 126 140 0
139 -126 -140 0
139 126 -140 0
-127 141 0
127 -141 0
-141 -128 142 0
-141 128 -142 0
141 -128 142 0
141 128 -142 0
-142 -129 143 0
-142 129 143 0
142 -129 143 0
142 129 -143 0
-143 -130 144 0
-143 130 -144 0
143 -130 144 0
143 130 144 0
-144 -131 145 0
-144 131 145 0
144 -131 145 0
144 131 -145 0
-145 -132 146 0
-145 132 -146 0
145 -132 146 0
145 132 146 0
-146 -133 -147 0
-146 133 -147 0
146 -133 -147 0
146 133 147 0
-147 -134 -148 0
-147 134 148 0
147 -134 -148 0
147 134 -148 0
-148 -135 -149 0
-148 135 149 0
148 -135 149 0
148 135 -149 0
-149 -136 -743 150 0
-149 -136 743 -150 0
-149 136 -744 150 0
-149 136 744 -150 0
149 -136 -745 150 0
149 -136 745 -150 0
149 136 -746 150 0
149 136 746 -150 0
-150 -137 151 0
-150 137 151 0
150 -137 151 0
150 137 -151 0
-151 -138 -751 152 0
-151 -138 751 -152 0
-151 138 -752 152 0
-151 138 752 -152 0
151 -138 -753 152 0
151 -138 753 -152 0
151 138 -754 152 0
151 138 754 -152 0
-152 -139 153 0
-152 139 153 0
152 -139 153 0
152 139 -153 0
-153 -140 -759 154 0
-153 -140 759 -154 0
-153 140 -760 154 0
-153 140 760 -154 0
153 -140 -761 154 0
153 -140 761 -154 0
153 140 -762 154 0
153 140 762 -154 0
-141 -763 155 0
-141 763 -155 0
141 -764 155 0
141 764 -155 0
-155 -142 -156 0
-155 142 156 0
155 -142 156 0
155 142 -156 0
-156 -143 157 0
-156 143 -157 0
156 -143 -157 0
156 143 -157 0
-157 -144 158 0
-157 144 158 0
157 -144 -158 0
157 144 158 0
-158 -145 -777 159 0
-158 -145 777 -159 0
-158 145 -778 159 0
-158 145 778 -159 0
158 -145 -779 159 0
158 -145 779 -159 0
158 145 -780 159 0
158 145 780 -159 0
-159 -146 -160 0
-159 146 160 0
159 -146 -160 0
159 146 -160 0
-160 -147 -785 161 0
-160 -147 785 -161 0
-160 147 -786 161 0
-160 147 786 -161 0
160 -147 -787 161 0
160 -147 787 -161 0
160 147 -788 161 0
160 147 788 -161 0
-161 -148 -789 162 0
-161 -148 789 -162 0
-161 148 -790 162 0
-161 148 790 -162 0
161 -148 -791 162 0
161 -148 791 -162 0
161 148 -792 162 0
161 148 792 -162 0
-162 -149 -793 163 0
-162 -149 793 -163 0
-162 149 -794 163 0
-162 149 794 -163 0
162 -149 -795 163 0
162 -149 795 -163 0
162 149 -796 163 0
162 149 796 -163 0
-163 -150 -164 0
-163 150 -164 0
163 -150 164 0
163 150 -164 0
-164 -151 -165 0
-164 151 165 0
164 -151 -165 0
164 151 -165 0
-165 -152 -166 0
-165 152 166 0
165 -152 -166 0
165 152 166 0
-166 -153 -809 167 0
-166 -153 809 -167 0
-166 153 -810 167 0
-166 153 810 -167 0
166 -153 -811 167 0
166 -153 811 -167 0
166 153 -812 167 0
166 153 812 -167 0
-167 -154 168 0
-167 154 168 0
167 -154 -168 0
167 154 168 0
-155 -817 169 0
-155 817 -169 0
155 -818 169 0
155 818 -169 0
-169 -156 170 0
-169 156 170 0
169 -156 -170 0
169 156 -170 0
-170 -157 -171 0
-170 157 171 0
170 -157 -171 0
170 157 -171 0
-171 -158 -172 0
-171 158 -172 0
171 -158 172 0
171 158 172 0
-172 -159 -173 0
-172 159 -173 0
172 -159 173 0
172 159 173 0
-173 -160 174 0
-173 160 174 0
173 -160 174 0
173 160 -174 0
-174 -161 -175 0
-174 161 175 0
174 -161 -175 0
174 161 -175 0
-175 -162 -843 176 0
-175 -162 843 -176 0
-175 162 -844 176 0
-175 162 844 -176 0
175 -162 -845 176 0
175 -162 845 -176 0
175 162 -846 176 0
175 162 846 -176 0
-176 -163 -177 0
-176 163 177 0
176 -163 -177 0
176 163 -177 0
-177 -164 -178 0
-177 164 -178 0
177 -164 -178 0
177 164 178 0
-178 -165 -179 0
-178 165 179 0
178 -165 179 0
178 165 179 0
-179 -166 -180 0
-179 166 -180 0
179 -166 180 0
179 166 180 0
-180 -167 -863 181 0
-180 -167 863 -181 0
-180 167 -864 181 0
-180 167 864 -181 0
180 -167 -865 181 0
180 -167 865 -181 0
180 167 -866 181 0
180 167 866 -181 0
-181 -168 -867 182 0
-181 -168 867 -182 0
-181 168 -868 182 0
-181 168 868 -182 0
181 -168 -869 182 0
181 -168 869 -182 0
181 168 -870 182 0
181 168 870 -182 0
-169 -871 183 0
-169 871 -183 0
169 -872 183 0
169 872 -183 0
-183 -170 -873 184 0
-183 -170 873 -184 0
-183 170 -874 184 0
-183 170 874 -184 0
183 -170 -875 184 0
183 -170 875 -184 0
183 170 -876 184 0
183 170 876 -184 0
-184 -171 -877 185 0
-184 -171 877 -185 0
-184 171 -878 185 0
-184 171 878 -185 0
184 -171 -879 185 0
184 -171 879 -185 0
184 171 -880 185 0
184 171 880 -185 0
-185 -172 -186 0
-185 172 186 0
185 -172 186 0
185 172 186 0
-186 -173 187 0
-186 173 -187 0
186 -173 187 0
186 173 -187 0
-187 -174 188 0
-187 174 -188 0
187 -174 188 0
187 174 188 0
-188 -175 -893 189 0
-188 -175 893 -189 0
-188 175 -894 189 0
-188 175 894 -189 0
188 -175 -895 189 0
188 -175 895 -189 0
188 175 -896 189 0
188 175 896 -189 0
-189 -176 190 0
-189 176 190 0
189 -176 -190 0
189 176 190 0
-190 -177 -191 0
-190 177 191 0
190 -177 191 0
190 177 -191 0
-191 -178 192 0
-191 178 -192 0
191 -178 -192 0
191 178 -192 0
-192 -179 -909 193 0
-192 -179 909 -193 0
-192 179 -910 193 0
-192 179 910 -193 0
192 -179 -911 193 0
192 -179 911 -193 0
192 179 -912 193 0
192 179 912 -193 0
-193 -180 -194 0
-193 180 194 0
193 -180 -194 0
193 180 194 0
-194 -181 195 0
-194 181 -195 0
194 -181 -195 0
194 181 -195 0
-195 -182 196 0
-195 182 196 0
195 -182 -196 0
195 182 -196 0
196 0
