data/benchmarks/bayes/75-14-4-q.gr
p tw 924 1133
167 811
54 376
67 68
177 190
99 100
26 39
136 149
59 73
159 160
63 461
8 9
35 353
118 131
40 41
77 90
180 866
163 795
27 269
100 101
179 910
132 133
64 416
118 625
92 106
192 193
20 248
41 42
151 164
73 74
46 395
110 123
33 47
133 134
119 626
55 434
33 294
162 844
125 139
51 64
183 876
16 232
74 75
106 107
149 743
143 156
66 80
138 752
166 167
15 16
60 396
47 48
158 172
7 21
107 108
150 744
26 272
122 636
53 375
52 419
99 113
19 242
148 792
48 49
8 251
80 81
98 544
152 753
168 868
40 54
81 482
20 243
74 452
128 661
90 567
132 146
117 670
81 82
25 38
13 222
73 87
173 174
22 23
129 662
16 227
183 871
165 179
166 809
14 28
114 115
155 818
42 383
14 275
68 484
159 779
77 462
106 120
175 894
147 786
7 245
55 56
108 584
193 911
47 61
53 370
147 148
139 153
56 384
180 865
163 794
99 602
189 895
49 354
80 94
118 624
172 186
72 495
121 635
181 182
55 433
33 293
183 875
173 187
84 97
15 226
176 845
176 189
60 395
158 171
117 130
140 760
122 635
53 374
107 583
21 22
19 241
58 71
73 450
147 161
148 791
98 543
152 752
29 282
66 420
113 114
150 163
168 867
162 793
74 451
132 145
54 55
182 869
91 104
117 669
171 878
146 147
104 568
158 777
22 251
32 45
65 469
165 178
32 292
87 88
124 137
14 274
68 483
41 377
77 461
106 119
131 670
159 778
65 78
147 785
179 180
28 276
88 89
97 546
120 121
157 170
53 369
193 910
6 19
180 181
29 30
139 152
61 62
169 818
56 383
51 417
98 111
21 35
99 601
121 122
153 810
153 154
49 353
80 93
189 894
2 3
113 127
39 52
62 63
128 664
172 185
94 95
131 144
54 68
175 843
13 27
3 4
55 432
35 36
76 464
72 85
146 160
32 287
105 119
183 874
95 96
15 225
69 434
127 128
164 177
176 844
87 101
52 372
187 188
46 60
36 37
68 69
179 193
7 248
28 42
34 351
128 129
140 759
160 161
53 373
107 582
120 134
21 250
161 791
79 93
73 449
69 70
101 102
170 876
152 751
29 281
66 419
61 75
161 162
20 34
162 792
10 11
153 167
182 868
2 16
59 398
102 103
171 877
192 909
94 108
72 498
121 638
104 567
40 375
22 250
43 44
53 67
194 195
7 207
32 291
35 49
135 136
68 482
127 141
38 51
131 669
86 100
185 878
76 77
115 661
28 275
82 484
68 82
151 754
193 909
161 786
27 41
21 245
167 866
160 174
169 817
51 416
55 377
153 809
189 893
101 115
12 25
60 74
162 796
113 602
48 356
1 15
3 232
13 26
158 780
136 743
76 463
103 566
86 495
105 118
65 472
69 433
52 371
9 10
46 59
41 380
138 151
34 350
6 242
19 32
107 581
108 635
161 790
21 249
79 92
154 760
170 875
134 135
171 184
2 226
55 381
20 33
3 200
65 422
48 351
75 76
182 867
59 397
112 125
31 289
85 498
16 17
175 846
40 374
53 66
94 583
108 109
32 290
145 158
16 282
79 469
149 793
49 50
185 877
86 99
109 110
105 625
28 274
82 483
178 191
161 785
27 40
167 865
50 51
10 216
82 83
119 132
51 415
42 56
19 292
142 143
23 24
134 148
65 417
60 73
130 672
83 84
48 355
113 601
115 116
152 165
181 866
14 222
68 431
75 89
175 176
34 48
192 912
24 25
84 543
78 472
93 106
13 272
16 30
103 565
116 117
69 432
54 380
108 122
160 788
67 81
57 58
167 168
89 90
126 139
49 63
115 664
149 150
159 173
8 22
6 241
60 450
27 273
30 31
161 789
21 248
100 114
47 349
90 91
154 759
82 96
2 225
41 55
55 380
31 32
141 142
3 199
184 876
65 421
48 350
23 37
133 147
123 124
145 777
31 288
85 497
181 870
115 129
74 88
40 373
64 65
94 582
174 175
56 70
86 498
156 157
167 810
15 29
54 375
5 6
166 180
59 72
107 121
97 98
105 624
153 762
82 482
18 290
89 103
167 181
189 190
48 62
179 909
148 149
64 415
92 105
188 896
10 215
30 44
30 282
20 247
140 154
19 291
33 46
81 95
65 416
119 625
184 880
141 155
48 354
125 138
162 843
16 231
22 36
181 865
122 123
34 47
66 79
78 471
114 128
138 751
39 372
174 188
17 232
7 20
54 379
55 69
26 271
150 743
160 787
67 80
63 464
35 356
159 172
8 250
8 21
60 449
40 53
27 272
81 481
63 64
100 113
148 162
20 242
90 566
4 5
41 54
46 398
13 221
73 86
184 875
65 420
48 349
129 661
16 226
133 146
181 195
85 496
14 27
181 869
155 817
37 38
42 382
74 87
149 746
122 136
84 546
175 893
9 214
166 179
167 809
54 374
108 583
47 60
6 208
107 120
52 422
130 131
167 180
153 761
18 289
163 793
11 12
180 864
48 61
27 276
118 623
140 153
47 352
30 281
20 246
163 164
44 45
169 872
81 94
119 624
33 292
173 186
16 230
145 780
22 35
166 812
155 156
78 470
114 127
137 138
39 371
174 187
96 97
18 19
54 378
55 68
26 270
88 102
188 189
147 160
148 790
35 355
170 171
8 249
29 43
180 194
129 130
27 271
121 135
64 418
111 112
148 161
20 241
74 450
90 565
62 76
46 397
162 163
154 168
144 145
16 225
3 17
162 846
103 104
181 194
42 381
95 109
14 273
85 86
122 135
149 745
138 754
159 777
9 213
155 169
195 196
60 398
177 178
36 50
108 582
97 545
136 137
96 110
122 638
128 142
118 119
52 421
77 78
19 244
56 382
18 288
21 34
69 83
98 546
169 170
180 863
168 870
141 764
81 484
129 143
161 175
151 152
10 24
128 663
110 111
117 672
54 67
102 116
55 431
51 52
33 291
146 159
162 176
129 664
16 229
43 57
183 873
143 144
166 811
103 117
87 100
176 843
135 149
77 464
175 896
147 788
179 192
7 247
28 41
76 90
26 269
88 101
53 372
136 150
120 133
168 182
148 789
180 193
29 280
61 74
77 91
162 791
49 356
121 134
118 626
153 166
169 183
74 449
2 15
25 26
62 75
110 124
94 107
72 497
121 637
104 566
22 249
154 167
3 16
51 65
35 48
15 228
95 108
149 744
17 18
68 481
143 157
9 23
60 397
36 49
68 81
97 544
151 753
140 762
128 141
53 376
160 173
19 243
56 381
73 452
69 82
152 754
66 422
101 114
141 763
162 795
161 174
10 23
128 662
117 671
171 880
102 115
3 231
158 779
76 462
183 872
65 471
32 294
176 177
52 370
135 148
14 276
159 780
41 379
77 463
131 672
17 31
147 787
117 118
7 246
34 349
76 89
109 123
193 912
11 216
53 371
58 59
168 181
191 192
50 64
170 874
150 151
29 279
153 812
189 896
142 156
49 355
162 790
91 92
59 396
83 97
183 184
32 33
72 496
104 565
121 636
175 845
175 189
165 166
24 38
136 746
124 125
32 289
84 98
15 227
16 281
116 130
176 846
65 66
176 190
9 22
57 71
28 273
157 158
97 543
6 7
117 131
151 752
140 761
149 163
139 140
107 584
108 638
167 864
21 252
73 451
58 72
42 55
90 104
190 191
66 421
39 40
55 384
134 147
150 164
162 794
182 196
172 173
130 671
31 45
131 132
182 870
155 764
91 105
14 221
75 88
123 137
171 879
192 911
3 230
72 73
158 778
22 252
13 271
16 29
32 46
76 461
64 78
65 470
164 165
32 293
69 431
124 138
108 121
156 170
52 369
79 472
5 19
41 378
131 671
149 796
17 30
185 880
65 79
49 62
115 663
97 111
109 122
157 171
11 215
161 788
6 20
21 247
50 63
170 873
51 418
82 95
98 112
55 379
153 811
142 155
162 789
39 53
23 36
59 395
31 287
83 96
131 145
68 434
115 128
175 844
94 581
175 188
24 37
136 745
72 86
56 69
32 288
86 497
103 568
16 280
116 129
38 39
164 178
105 623
82 481
89 102
151 751
34 352
6 244
149 162
71 72
108 637
161 792
167 863
21 251
10 214
30 43
188 895
63 77
154 762
90 103
12 13
2 228
55 383
65 415
4 18
182 195
104 105
130 670
31 44
48 353
184 879
155 763
181 864
13 14
123 136
192 910
45 46
3 229
40 376
37 51
13 270
105 106
64 77
17 231
7 208
46 47
156 169
160 786
78 79
79 471
5 18
149 795
38 52
185 879
63 463
70 84
138 139
115 662
97 110
19 20
130 144
179 912
161 787
79 80
11 25
21 246
71 85
171 172
20 21
19 294
55 378
52 53
163 177
12 26
184 874
65 419
44 58
85 495
104 118
181 868
68 433
53 54
84 545
45 59
145 146
136 744
103 567
86 496
26 27
54 373
137 151
16 279
6 207
150 746
86 87
18 32
78 92
178 179
153 760
27 28
138 152
6 243
60 452
170 184
27 275
19 33
108 636
119 120
2 200
188 894
10 213
47 351
30 280
20 245
63 76
111 125
154 761
60 61
169 871
2 227
55 382
171 185
119 623
4 17
52 66
130 669
152 153
48 352
184 878
1 2
112 126
145 779
31 290
144 158
181 863
93 94
78 469
94 584
37 50
13 269
85 99
39 370
185 186
17 230
145 159
167 812
54 377
177 191
160 785
26 40
79 470
149 794
63 462
70 83
35 354
118 132
186 187
105 626
130 143
163 796
178 192
27 270
179 911
11 24
64 417
119 133
151 165
19 293
46 396
163 176
184 873
65 418
44 57
162 845
104 117
152 166
181 867
68 432
84 544
138 753
45 58
93 107
193 194
108 581
137 150
59 60
96 109
150 745
122 637
18 31
52 420
78 91
126 140
153 759
18 287
8 252
98 545
60 451
168 869
92 93
27 274
81 483
129 142
170 183
2 199
188 893
47 350
30 279
20 244
184 185
111 124
90 568
33 34
25 39
125 126
52 65
162 175
184 877
129 663
16 228
145 778
34 35
144 157
166 810
66 67
103 116
42 384
158 159
175 895
39 369
7 8
17 229
